g3 0 1 0	# problem ampl_hessian2
 3 5 1 1 2	# vars, constraints, objectives, ranges, eqns
 5 1	# nonlinear constraints, objectives
 0 0	# network constraints: nonlinear, linear
 2 3 2	# nonlinear vars in constraints, objectives, both
 0 0 0 1	# linear network variables; functions; arith, flags
 0 0 0 0 0	# discrete variables: binary, integer, nonlinear (b,c,o)
 10 3	# nonzeros in Jacobian, gradients
 0 0	# max name lengths: constraints, variables
 0 0 0 0 0	# common exprs: b,c,o,c1,o1
C0
o0
o2
n-2
o5
v0
n2
o2
n-3
o5
v1
n2
C1
o0
o2
n7
o5
v0
n2
o2
n11
o5
v1
n2
C2
o0
o2
n19
o5
v0
n2
o2
n23
o5
v1
n2
C3
o0
o2
n37
o5
v0
n2
o2
n41
o5
v1
n2
C4
o0
o2
n43
o5
v0
n2
o2
n47
o5
v1
n2
O0 0
o54
6
o2
o2
n29.5
v0
v0
o2
o2
n61
v0
v1
o2
o2
n67
v0
v2
o2
o2
n35.5
v1
v1
o2
o2
n73
v1
v2
o2
o2
n39.5
v2
v2
x3
0 3.14159
1 2.78
2 4.66
r
4 -1
4 13
0 17 29
2 31
1 53
b
3
3
3
k2
5
10
J0 2
0 0
1 0
J1 2
0 0
1 0
J2 2
0 0
1 0
J3 2
0 0
1 0
J4 2
0 0
1 0
G0 3
0 0
1 0
2 0
